c --- [ banner ] -------------------------------------------------------------
c 
c CaDiCaL SAT Solver
c Copyright (c) 2016-2023 A. Biere, M. Fleury, N. Froleyks, K. Fazekas, F. Pollitt
c 
c Version 1.7.3 29cd4cb6de6f7400069fe34591e5e7eb319d049f
c g++ (Ubuntu 11.4.0-1ubuntu1~22.04) 11.4.0 -Wall -Wextra -O3 -DNDEBUG
c Wed Oct 4 21:54:22 IST 2023 Linux Kamal 5.15.90.1-microsoft-standard-WSL2 x86_64
c 
c --- [ proof tracing ] ------------------------------------------------------
c 
c opening file to write 'logs/7_2_2_2/instance_7_2_2_2.drat'
c writing binary proof trace to 'logs/7_2_2_2/instance_7_2_2_2.drat'
c 
c --- [ parsing input ] ------------------------------------------------------
c 
c reading DIMACS file from 'logs/7_2_2_2/instance_7_2_2_2.cnf'
c opening file to read 'logs/7_2_2_2/instance_7_2_2_2.cnf'
c found 'p cnf 1028 3285' header
c parsed 3285 clauses in 0.01 seconds process time
c closing file 'logs/7_2_2_2/instance_7_2_2_2.cnf'
c after reading 48261 bytes 0.0 MB
c 
c --- [ options ] ------------------------------------------------------------
c 
c all options are set to their default value
c 
c --- [ solving ] ------------------------------------------------------------
c 
c time measured in process time since initialization
c 
c  seconds  reductions  redundant irredundant
c         MB    restarts       trail    variables
c          level   conflicts       glue     remaining
c 
c *  0.02  4  0 0   0    0    0  0% 0 3216 930 90%
c {  0.02  4  0 0   0    0    0  0% 0 3216 930 90%
c -  0.03  4 31 1  14  301  287 68% 7 2920 930 90%
c -  0.05  5 26 2  94  902  748 60% 7 2920 930 90%
c }  0.05  5 27 2 117 1004  842 60% 8 2920 930 90%
c [  0.05  5  0 2 117 1004  842  0% 0 2920 930 90%
c O  0.05  5 45 2 117 1005  843 84% 3 2920 930 90%
c -  0.07  5 33 3 117 1804 1279 70% 7 2920 930 90%
c ]  0.10  5 29 3 118 3006 2430 66% 9 2920 930 90%
c {  0.10  5 27 3 118 3006 2430 60% 8 2920 930 90%
c -  0.11  5 27 4 119 3006 1915 60% 8 2920 930 90%
c F  0.11  5 27 4 119 3007 1916 60% 8 2920 930 90%
c s  0.12  5 26 4 203 3580 2439 59% 8 2920 930 90%
c w  0.13  5 26 4 203 3580 2439 59% 8 2920 930 90%
c e  0.13  5 26 4 203 3580  358 59% 8 2367 406 39%
c s  0.13  5 26 4 203 3580  358 59% 8 2367 406 39%
c ^  0.13  5 26 4 203 3580  358 59% 8 2367 406 39%
c -  0.15  5 26 5 349 4506 1182 49% 9 2367 406 39%
c #  0.18  5 23 5 423 6008 2715 52% 8 2367 406 39%
c -  0.19  5 23 6 464 6306 2467 51% 8 2367 406 39%
c 
c  seconds  reductions  redundant irredundant
c         MB    restarts       trail    variables
c          level   conflicts       glue     remaining
c 
c }  0.20  5 23 6 539 7006 3142 51% 8 2367 406 39%
c [  0.20  5 29 6 539 7006 3142 167% 9 2367 406 39%
c -  0.24  5 26 7 540 8406 3407 117% 11 2367 406 39%
c I  0.27  5 25 7 541 10011 4726 94% 13 2367 406 39%
c ]  0.28  5 25 7 541 10104 4794 93% 12 2367 406 39%
c 1  0.28  5 25 7 541 10104 4794 93% 12 2367 406 39%
c 
c --- [ closing proof ] ------------------------------------------------------
c 
c traced 13570 added and 9596 deleted clauses
c closing file 'logs/7_2_2_2/instance_7_2_2_2.drat'
c after writing 727941 bytes 0.7 MB
c 
c --- [ result ] -------------------------------------------------------------
c 
s SATISFIABLE
v -1 -2 -3 -4 -5 -6 -7 -8 -9 -10 -11 -12 -13 -14 -15 -16 -17 18 19 -20 -21 22
v 23 -24 -25 -26 -27 -28 -29 30 31 -32 -33 34 35 -36 -37 38 39 -40 -41 -42 -43
v -44 -45 46 47 -48 -49 50 51 -52 -53 54 55 -56 -57 -58 -59 -60 -61 62 63 -64
v -65 -66 -67 -68 -69 -70 -71 -72 -73 -74 -75 -76 -77 -78 -79 -80 -81 -82 -83
v -84 -85 -86 -87 -88 89 -90 91 -92 -93 -94 -95 -96 -97 -98 -99 -100 -101 -102
v -103 -104 -105 -106 -107 -108 -109 -110 -111 -112 -113 -114 -115 -116 -117
v -118 -119 -120 -121 -122 -123 -124 -125 -126 -127 -128 129 130 -131 -132
v -133 -134 -135 -136 -137 -138 -139 -140 -141 -142 -143 -144 -145 -146 -147
v -148 -149 -150 -151 -152 -153 -154 -155 -156 -157 -158 -159 -160 -161 -162
v -163 -164 -165 -166 -167 -168 -169 -170 -171 -172 -173 -174 -175 -176 -177
v -178 -179 -180 -181 -182 -183 -184 -185 -186 -187 -188 -189 -190 -191 -192
v -193 -194 -195 -196 -197 -198 -199 -200 -201 -202 -203 -204 -205 -206 -207
v -208 -209 -210 -211 -212 -213 -214 -215 -216 -217 -218 -219 -220 -221 -222
v -223 -224 -225 -226 -227 -228 -229 -230 -231 -232 -233 -234 -235 -236 -237
v 238 -239 240 -241 -242 -243 -244 -245 -246 -247 -248 -249 -250 -251 -252
v -253 254 -255 256 -257 258 -259 -260 -261 262 -263 -264 -265 -266 -267 -268
v -269 -270 -271 -272 -273 274 -275 -276 -277 278 -279 -280 -281 -282 -283
v -284 -285 -286 -287 -288 -289 290 -291 -292 -293 294 -295 -296 -297 -298
v -299 -300 -301 -302 -303 -304 -305 306 -307 -308 -309 310 -311 -312 -313
v -314 -315 -316 -317 -318 -319 -320 -321 -322 -323 -324 -325 -326 -327 -328
v -329 -330 -331 -332 -333 -334 -335 -336 -337 -338 -339 -340 -341 -342 -343
v -344 -345 -346 -347 -348 -349 -350 -351 -352 -353 -354 -355 -356 -357 -358
v 359 360 -361 -362 -363 -364 -365 -366 367 368 -369 -370 -371 -372 -373 -374
v -375 -376 -377 -378 -379 -380 -381 -382 -383 -384 -385 -386 -387 -388 -389
v -390 -391 -392 -393 -394 -395 -396 -397 -398 -399 -400 -401 -402 403 -404
v -405 -406 407 -408 -409 -410 411 -412 -413 -414 415 -416 -417 -418 -419 -420
v -421 -422 -423 -424 -425 -426 -427 -428 -429 -430 -431 -432 -433 -434 435
v -436 -437 -438 439 -440 -441 -442 443 -444 -445 -446 447 -448 -449 -450 -451
v -452 453 454 -455 456 457 458 -459 460 461 462 -463 464 -465 -466 -467 -468
v -469 -470 471 -472 -473 -474 -475 -476 -477 -478 -479 -480 481 -482 -483
v -484 -485 -486 -487 -488 -489 -490 -491 -492 -493 -494 -495 -496 -497 -498
v -499 -500 -501 -502 -503 -504 -505 -506 -507 508 -509 -510 -511 512 513 514
v -515 -516 517 518 -519 -520 521 522 -523 -524 525 526 -527 -528 -529 -530
v -531 -532 -533 -534 -535 -536 -537 538 -539 540 -541 -542 -543 -544 -545
v -546 -547 -548 549 550 551 552 -553 -554 -555 -556 557 558 559 560 -561 562
v 563 564 -565 566 -567 -568 569 -570 -571 -572 -573 -574 575 576 577 578 579
v 580 -581 -582 583 -584 -585 586 -587 588 589 590 -591 592 -593 -594 595 -596
v 597 -598 -599 -600 -601 -602 -603 604 605 606 -607 -608 -609 610 -611 612
v 613 614 615 616 -617 618 619 -620 621 -622 623 -624 625 626 -627 -628 -629
v 630 -631 632 -633 634 -635 -636 -637 -638 639 640 -641 -642 643 -644 -645
v 646 647 648 649 650 651 -652 -653 654 655 656 657 658 659 660 661 662 663
v 664 665 666 667 668 669 670 671 672 673 674 -675 -676 -677 678 679 680 681
v 682 683 684 685 686 687 688 689 690 691 692 693 694 695 696 697 698 699 700
v 701 702 703 704 705 706 707 708 709 710 711 712 713 714 715 716 717 718 719
v 720 721 722 723 724 725 726 727 728 729 730 731 732 733 734 735 736 737 738
v 739 740 741 742 743 744 745 746 -747 -748 -749 750 751 752 -753 -754 -755
v -756 -757 758 759 760 761 762 763 764 765 766 767 768 769 770 -771 -772 -773
v 774 775 776 -777 -778 -779 -780 -781 782 783 784 785 786 787 788 789 790 791
v 792 793 794 795 796 797 798 799 800 -801 -802 -803 -804 -805 806 807 808 809
v 810 811 812 813 814 815 816 817 818 819 820 821 822 823 824 -825 -826 -827
v -828 -829 830 831 832 833 834 835 836 837 838 839 840 841 842 -843 -844 -845
v 846 847 848 849 850 851 852 853 854 855 856 857 858 859 860 861 862 863 864
v 865 866 -867 -868 -869 870 871 872 -873 -874 -875 -876 877 878 -879 -880
v -881 -882 883 884 885 886 887 888 889 890 891 892 893 894 895 896 897 898
v 899 900 901 902 903 904 905 906 907 908 909 910 911 912 913 914 -915 -916
v 917 918 919 920 -921 -922 -923 -924 925 926 927 928 -929 -930 931 932 933
v 934 935 936 937 938 -939 -940 -941 942 943 944 -945 -946 -947 -948 -949 950
v 951 952 953 954 955 956 957 958 959 960 961 962 -963 -964 -965 966 967 968
v -969 -970 -971 -972 -973 974 975 976 977 978 979 980 981 982 983 984 985 986
v 987 988 989 990 991 992 -993 -994 -995 -996 -997 998 999 1000 1001 1002 1003
v 1004 1005 1006 1007 1008 1009 1010 -1011 -1012 1013 1014 1015 1016 -1017
v -1018 -1019 -1020 -1021 1022 -1023 -1024 1025 1026 1027 1028 0
c 
c --- [ run-time profiling ] -------------------------------------------------
c 
c process time taken by individual solving procedures
c (percentage relative to process time for solving)
c 
c         0.24   94.65% search
c         0.13   48.54% stable
c         0.12   45.44% unstable
c         0.01    4.80% simplify
c         0.01    3.70% parse
c         0.01    2.05% elim
c         0.00    1.12% subsume
c         0.00    1.01% vivify
c         0.00    0.47% lucky
c         0.00    0.30% ternary
c         0.00    0.06% probe
c   =================================
c         0.26   93.20% solve
c 
c last line shows process time for solving
c (percentage relative to total process time)
c 
c --- [ statistics ] ---------------------------------------------------------
c 
c blocked:                       0         0.00 %  of irredundant clauses
c   blockings:                   0         0.00    internal
c   candidates:                  0         0.00    per blocking 
c   blockres:                    0         0.00    per candidate
c   pure:                        0         0.00 %  of all variables
c   pureclauses:                 0         0.00    per pure literal
c chronological:              1876        18.57 %  of conflicts
c compacts:                      1     10104.00    interval
c conflicts:                 10104     39192.87    per second
c   backtracked:             14892       147.39 %  of conflicts
c conditioned:                   0         0.00 %  of irredundant clauses
c   conditionings:               0         0.00    interval
c   condcands:                   0         0.00    candidate clauses
c   condassinit:                 0.0       0.00 %  initial assigned
c   condcondinit:                0.0       0.00 %  initial condition
c   condautinit:                 0.0       0.00 %  initial autarky
c   condassrem:                  0.0       0.00 %  final assigned
c   condcondrem:                 0.000     0.00 %  final conditional
c   condautrem:                  0.000     0.00 %  final autarky
c   condprops:                   0         0.00    per candidate
c covered:                       0         0.00 %  of irredundant clauses
c   coverings:                   0         0.00    interval
c   asymmetric:                  0         0.00 %  of covered clauses
c   blocked:                     0         0.00 %  of covered clauses
c decisions:                 24621     95503.53    per second
c   searched:                86835         3.53    per decision
c eliminated:                  524        50.97 %  of all variables
c   elimphases:                  1     10104.00    interval
c   elimrounds:                  1         1.00    per phase
c   elimtried:                 930        56.34 %  eliminated
c   elimgates:                 610        65.59 %  gates per tried
c   elimequivs:                127        20.82 %  equivalence gates
c   elimands:                  483        79.18 %  and gates
c   elimites:                    0         0.00 %  if-then-else gates
c   elimxors:                    0         0.00 %  xor gates
c   elimsubst:                 521        99.43 %  substituted
c   elimres:                 17922        34.20    per eliminated
c   elimrestried:            14810        82.64 %  per resolution
c ext.prop. calls:               0         0.00 %  of queries
c   propagating:                 0         0.00 %  per eprop-call
c   explained:                   0         0.00 %  per eprop-call
c   falsified:                   0         0.00 %  per eprop-call
c ext.clause calls:              0         0.00 %  of queries
c   learned:                     0         0.00 %  per called
c   conflicting:                 0         0.00 %  per learned
c   propagating:                 0         0.00 %  per learned
c ext.final check:               0         0.00 %  of queries
c fixed:                        98         9.53 %  of all variables
c   failed:                      0         0.00 %  of all variables
c   probefailed:                 0         0.00 %  per failed
c   transredunits:               0         0.00 %  per failed
c   probingphases:               1     10104.00    interval
c   probesuccess:                0         0.00 %  phases
c   probingrounds:               1         1.00    per phase
c   probed:                    145         0.00    per failed
c   hbrs:                        0         0.00    per probed
c   hbrsizes:                    0         0.00    per hbr
c   hbreds:                      0         0.00 %  per hbr
c   hbrsubs:                     0         0.00 %  per hbr
c   units:                       0         0.00    interval
c   binaries:                   13       777.23    interval
c flushed:                       0         0.00 %  per conflict
c   hyper:                       0         0.00 %  per conflict
c   flushings:                   0         0.00    interval
c instantiated:                  0         0.00 %  of tried
c   instrounds:                  0         0.00 %  of elimrounds
c learned:                    9905        98.03 %  per conflict
c   bumped:                 318104        32.12    per learned
c   recomputed:              20202       203.96 %  per learned
c   promoted1:                 347         3.50 %  per learned
c   promoted2:                 229         2.31 %  per learned
c   improvedglue:             2315        23.37 %  per learned
c lucky:                         0         0.00 %  of tried
c   constantzero                 0         0.00 %  of tried
c   constantone                  0         0.00 %  of tried
c   backwardone                  0         0.00 %  of tried
c   backwardzero                 0         0.00 %  of tried
c   forwardone                   0         0.00 %  of tried
c   forwardzero                  0         0.00 %  of tried
c   positivehorn                 0         0.00 %  of tried
c   negativehorn                 0         0.00 %  of tried
c   extendbytes:             30668         0.03    bytes and MB
c learned_lits:             238266       100.00 %  learned literals
c minimized:                     0         0.00 %  learned literals
c shrunken:                  22550         9.46 %  learned literals
c minishrunken:              17065         7.16 %  learned literals
c otfs:                        111         1.10 %  of conflict
c   subsumed                     1         0.01 %  of conflict
c   strengthened               110         1.09 %  of conflict
c propagations:             890344         3.45 M  per second
c   coverprops:                  0         0.00 %  of propagations
c   probeprops:                525         0.06 %  of propagations
c   searchprops:            858607        96.44 %  of propagations
c   transredprops:           11612         1.30 %  of propagations
c   vivifyprops:             19600         2.20 %  of propagations
c   walkprops:                   0         0.00 %  of propagations
c reactivated:                   0         0.00 %  of all variables
c reduced:                    2436        24.11 %  per conflict
c   reductions:                  7      1443.43    interval
c   collections:                 8      1263.00    interval
c rephased:                      4      2526.00    interval
c   rephasedbest:                0         0.00 %  rephased best
c   rephasedflip:                1        25.00 %  rephased flipping
c   rephasedinv:                 1        25.00 %  rephased inverted
c   rephasedorig:                1        25.00 %  rephased original
c   rephasedrand:                1        25.00 %  rephased random
c   rephasedwalk:                0         0.00 %  rephased walk
c rescored:                      0         0.00    interval
c restarts:                    541        18.68    interval
c   reused:                    154        28.47 %  per restart
c   reusedlevels:              575         4.25 %  per restart levels
c restored:                      0         0.00 %  per weakened
c   restorations:                0         0.00 %  per extension
c   literals:                    0         0.00    per restored clause
c stabilizing:                   2        50.48 %  of conflicts
c   restartstab:                 3         0.55 %  of all restarts
c   reusedstab:                  1        33.33 %  per stable restarts
c substituted:                   0         0.00 %  of all variables
c   decompositions:              2         2.00    per phase
c subsumed:                    630         1.93 %  of all clauses
c   subsumephases:               1     10104.00    interval
c   subsumerounds:               2         2.00    per phase
c   deduplicated:                0         0.00 %  per subsumed
c   transreds:                   1     10104.00    interval
c   transitive:                  0         0.00 %  per subsumed
c   subirr:                      0         0.00 %  of subsumed
c   subred:                      7         1.11 %  of subsumed
c   subtried:                 5291         8.40    tried per subsumed
c   subchecks:               78697        14.87    per tried
c   subchecks2:                100         0.13 %  per subcheck
c   elimotfsub:                  0         0.00 %  of subsumed
c   elimbwsub:                   0         0.00 %  of subsumed
c   eagersub:                  622        98.73 %  of subsumed
c   eagertried:             217910       350.34    tried per eagersub
c strengthened:                207         0.63 %  of all clauses
c   elimotfstr:                  0         0.00 %  of strengthened
c   elimbwstr:                   0         0.00 %  of strengthened
c ternary:                     111         1.78 %  of resolved
c   phases:                      2      5052.00    interval
c   htr3:                      111       100.00 %  ternary hyper ternres
c   htr2:                        0         0.00 %  binary hyper ternres
c vivified:                      2         0.01 %  of all clauses
c   vivifications:               1     10104.00    interval
c   vivifychecks:             1718        17.00 %  per conflict
c   vivifysched:              2816        61.01 %  checks per scheduled
c   vivifyunits:                 0         0.00 %  per vivify check
c   vivifyinst:                  1         0.06 %  per vivify check
c   vivifysubs:                  0         0.00 %  per subsumed
c   vivifystrs:                  2         0.97 %  per strengthened
c   vivifystrirr:                0         0.00 %  per vivifystrs
c   vivifystred1:                1        50.00 %  per vivifystrs
c   vivifystred2:                1        50.00 %  per vivifystrs
c   vivifystred3:                0         0.00 %  per vivifystrs
c   vivifydecs:               6193         3.60    per checks
c   vivifyreused:              692        11.17 %  per decision
c walked:                        0         0.00    interval
c   flips:                       0         0.00    per walk
c   broken:                      0         0.00    per flip
c weakened:                   1453         2.28    average size
c   extensions:                  1     10104.00    interval
c   flipped:                   123         0.08    per weakened
c 
c seconds are measured in process time for solving
c 
c --- [ resources ] ----------------------------------------------------------
c 
c total process time since initialization:         0.29    seconds
c total real time since initialization:            0.47    seconds
c maximum resident set size of process:            5.80    MB
c 
c --- [ shutting down ] ------------------------------------------------------
c 
c exit 10
